
******************************************************************************
This program contains Ipopt, a library for large-scale nonlinear optimization.
 Ipopt is released as open source code under the Eclipse Public License (EPL).
         For more information visit http://projects.coin-or.org/Ipopt
******************************************************************************

This is Ipopt version 3.12.13, running with linear solver mumps.
NOTE: Other linear solvers might be more efficient (see Ipopt documentation).

Number of nonzeros in equality constraint Jacobian...:     4320
Number of nonzeros in inequality constraint Jacobian.:     2016
Number of nonzeros in Lagrangian Hessian.............:     4878

Total number of variables............................:     1425
                     variables with only lower bounds:        0
                variables with lower and upper bounds:      777
                     variables with only upper bounds:        0
Total number of equality constraints.................:      864
Total number of inequality constraints...............:      648
        inequality constraints with only lower bounds:        0
   inequality constraints with lower and upper bounds:        0
        inequality constraints with only upper bounds:      648

iter    objective    inf_pr   inf_du lg(mu)  ||d||  lg(rg) alpha_du alpha_pr  ls
   0  1.3665409e+01 3.22e-03 6.76e+00   0.0 0.00e+00    -  0.00e+00 0.00e+00   0
   1  8.4483317e+00 1.91e-03 3.52e+00  -2.3 1.38e+00  -4.0 8.05e-01 3.46e-01f  1
   2  6.0293523e+00 1.01e-03 1.66e+00  -2.9 7.29e-01  -4.5 9.39e-01 4.82e-01f  1
   3  5.0212798e+00 8.07e-04 3.80e-01  -4.0 3.85e-01  -5.0 8.72e-01 7.52e-01f  1
   4  4.8618276e+00 2.92e-04 5.85e-02  -5.0 1.98e-01  -5.4 8.43e-01 8.52e-01h  1
   5  4.8381798e+00 2.80e-04 1.45e-02  -5.9 1.32e-01  -4.1 8.87e-01 9.69e-01h  1
   6  4.8367384e+00 4.40e-04 2.02e-03  -7.0 1.74e-01  -4.6 9.29e-01 9.93e-01h  1
   7  4.8366747e+00 9.00e-07 1.86e-04 -10.3 2.12e-03  -5.1 9.72e-01 9.98e-01h  1
   8  4.8366722e+00 8.08e-13 1.99e-07 -11.0 4.99e-05  -5.5 1.00e+00 1.00e+00h  1
   9  4.8366722e+00 8.71e-12 2.46e-11 -11.0 2.52e-05  -6.0 1.00e+00 1.00e+00h  1

Number of Iterations....: 9

                                   (scaled)                 (unscaled)
Objective...............:   4.8366721551927050e+00    4.8366721551927050e+00
Dual infeasibility......:   2.4569237105268376e-11    2.4569237105268376e-11
Constraint violation....:   8.7140433757681990e-12    8.7140433757681990e-12
Complementarity.........:   5.7032425967446695e-11    5.7032425967446695e-11
Overall NLP error.......:   5.7032425967446695e-11    5.7032425967446695e-11


Number of objective function evaluations             = 10
Number of objective gradient evaluations             = 10
Number of equality constraint evaluations            = 10
Number of inequality constraint evaluations          = 10
Number of equality constraint Jacobian evaluations   = 10
Number of inequality constraint Jacobian evaluations = 10
Number of Lagrangian Hessian evaluations             = 9
Total CPU secs in IPOPT (w/o function evaluations)   =      0.221
Total CPU secs in NLP function evaluations           =      0.047

EXIT: Optimal Solution Found.
This is Ipopt version 3.12.13, running with linear solver mumps.
NOTE: Other linear solvers might be more efficient (see Ipopt documentation).

Number of nonzeros in equality constraint Jacobian...:     4320
Number of nonzeros in inequality constraint Jacobian.:     1944
Number of nonzeros in Lagrangian Hessian.............:     4521

Total number of variables............................:     1353
                     variables with only lower bounds:        0
                variables with lower and upper bounds:      705
                     variables with only upper bounds:        0
Total number of equality constraints.................:      864
Total number of inequality constraints...............:      648
        inequality constraints with only lower bounds:        0
   inequality constraints with lower and upper bounds:        0
        inequality constraints with only upper bounds:      648

iter    objective    inf_pr   inf_du lg(mu)  ||d||  lg(rg) alpha_du alpha_pr  ls
   0  5.6019363e+00 8.71e-12 2.01e-01   0.0 0.00e+00    -  0.00e+00 0.00e+00   0
   1  4.8438506e+00 1.51e-05 2.02e-03  -9.6 3.49e-02  -4.0 9.79e-01 9.90e-01h  1
   2  4.8366867e+00 3.42e-08 4.13e-06 -11.0 1.01e-03  -4.5 9.97e-01 9.98e-01h  1
   3  4.8366722e+00 6.48e-14 2.44e-11 -11.0 2.20e-06  -5.0 1.00e+00 1.00e+00h  1

Number of Iterations....: 3

                                   (scaled)                 (unscaled)
Objective...............:   4.8366721551454583e+00    4.8366721551454583e+00
Dual infeasibility......:   2.4436697989324548e-11    2.4436697989324548e-11
Constraint violation....:   6.4798860721637652e-14    6.4798860721637652e-14
Complementarity.........:   1.3593731307893888e-11    1.3593731307893888e-11
Overall NLP error.......:   2.4436697989324548e-11    2.4436697989324548e-11


Number of objective function evaluations             = 4
Number of objective gradient evaluations             = 4
Number of equality constraint evaluations            = 4
Number of inequality constraint evaluations          = 5
Number of equality constraint Jacobian evaluations   = 4
Number of inequality constraint Jacobian evaluations = 4
Number of Lagrangian Hessian evaluations             = 3
Total CPU secs in IPOPT (w/o function evaluations)   =      0.068
Total CPU secs in NLP function evaluations           =      0.011

EXIT: Optimal Solution Found.
